Li2 B18 H28                             
   1.00000000000000     
     5.4955894828772669    0.0263709137243683    0.5195765422160854
     1.2429872641652850    8.1724439354102110    0.2148293965859851
    -0.3532580135075337   -0.0864584614831493    9.4320023664882662
   Li   B    H 
     2    18    28
Direct
  0.9259960049260539  0.8460609168450099  0.2072294604780806
  0.0740039950739458  0.1539390831549902  0.7927705395219194
  0.7514429917680452  0.8712144594501117  0.5845375191197929
  0.2485570082319548  0.1287855405498882  0.4154624808802073
  0.6804001048103241  0.0201384832063394  0.7405355202001865
  0.3195998951896758  0.9798615167936605  0.2594644797998139
  0.7379474491214021  0.8844891442517804  0.8972945981900515
  0.2620525508785981  0.1155108557482196  0.1027054018099484
  0.5466488396505478  0.7190717050846870  0.9231133880922335
  0.4533511603494522  0.2809282949153131  0.0768866119077659
  0.6193598559703690  0.6024154131658928  0.7464963485343203
  0.3806401440296313  0.3975845868341074  0.2535036514656796
  0.5884368649191676  0.7001904976146025  0.5783066185203384
  0.4115631350808320  0.2998095023853975  0.4216933814796616
  0.9099242771334293  0.8517286796285974  0.7383448608670455
  0.0900757228665706  0.1482713203714023  0.2616551391329542
  0.8420123551183546  0.6805859775192726  0.8385183784630930
  0.1579876448816451  0.3194140224807273  0.1614816215369070
  0.8710062915898672  0.6705706206662839  0.6485096082930010
  0.1289937084101328  0.3294293793337164  0.3514903917069992
  0.5147570090649899  0.8620591181647206  0.5739683639612227
  0.4852429909350098  0.1379408818352794  0.4260316360387773
  0.4217872062326483  0.6830057625075814  0.6772370828387880
  0.5782127937673519  0.3169942374924183  0.3227629171612117
  0.8267664652498610  0.9186821358906148  0.4719852355508152
  0.1732335347501389  0.0813178641093852  0.5280147644491849
  0.4575427556959505  0.0473736296988917  0.7357947237170919
  0.5424572443040493  0.9526263703011087  0.2642052762829080
  0.7591445996828912  0.1503118221864219  0.7281912779393405
  0.2408554003171086  0.8496881778135780  0.2718087220606595
  0.5034408977515576  0.8867950133040007  0.9224176932880556
  0.4965591022484426  0.1132049866959992  0.0775823067119446
  0.8277315330787244  0.9285090765884271  0.0015991980296357
  0.1722684669212757  0.0714909234115727 -0.0015991980296354
  0.3410104498390567  0.7304127763812881  0.8808352231747252
  0.6589895501609434  0.2695872236187118  0.1191647768252749
  0.5500818763814851  0.6609885219652214  0.0401766974469078
  0.4499181236185146  0.3390114780347782  0.9598233025530923
  0.5811038033058621  0.4649567476667137  0.7552037358227985
  0.4188961966941377  0.5350432523332864  0.2447962641772015
  0.9597225262952044  0.4170930539509669  0.4064189832977378
  0.0402774737047955  0.5829069460490333  0.5935810167022626
  0.0098787166521550  0.4105391976575170  0.0985656933804050
  0.9901212833478453  0.5894608023424830  0.9014343066195952
  0.8875669366135567  0.1079158203961928  0.2668229676534782
  0.1124330633864429  0.8920841796038077  0.7331770323465217
  0.4651254287722628  0.3587042367914342  0.5275387656736692
  0.5348745712277369  0.6412957632085661  0.4724612343263307
 
  0.00000000E+00  0.00000000E+00  0.00000000E+00
  0.00000000E+00  0.00000000E+00  0.00000000E+00
  0.00000000E+00  0.00000000E+00  0.00000000E+00
  0.00000000E+00  0.00000000E+00  0.00000000E+00
  0.00000000E+00  0.00000000E+00  0.00000000E+00
  0.00000000E+00  0.00000000E+00  0.00000000E+00
  0.00000000E+00  0.00000000E+00  0.00000000E+00
  0.00000000E+00  0.00000000E+00  0.00000000E+00
  0.00000000E+00  0.00000000E+00  0.00000000E+00
  0.00000000E+00  0.00000000E+00  0.00000000E+00
  0.00000000E+00  0.00000000E+00  0.00000000E+00
  0.00000000E+00  0.00000000E+00  0.00000000E+00
  0.00000000E+00  0.00000000E+00  0.00000000E+00
  0.00000000E+00  0.00000000E+00  0.00000000E+00
  0.00000000E+00  0.00000000E+00  0.00000000E+00
  0.00000000E+00  0.00000000E+00  0.00000000E+00
  0.00000000E+00  0.00000000E+00  0.00000000E+00
  0.00000000E+00  0.00000000E+00  0.00000000E+00
  0.00000000E+00  0.00000000E+00  0.00000000E+00
  0.00000000E+00  0.00000000E+00  0.00000000E+00
  0.00000000E+00  0.00000000E+00  0.00000000E+00
  0.00000000E+00  0.00000000E+00  0.00000000E+00
  0.00000000E+00  0.00000000E+00  0.00000000E+00
  0.00000000E+00  0.00000000E+00  0.00000000E+00
  0.00000000E+00  0.00000000E+00  0.00000000E+00
  0.00000000E+00  0.00000000E+00  0.00000000E+00
  0.00000000E+00  0.00000000E+00  0.00000000E+00
  0.00000000E+00  0.00000000E+00  0.00000000E+00
  0.00000000E+00  0.00000000E+00  0.00000000E+00
  0.00000000E+00  0.00000000E+00  0.00000000E+00
  0.00000000E+00  0.00000000E+00  0.00000000E+00
  0.00000000E+00  0.00000000E+00  0.00000000E+00
  0.00000000E+00  0.00000000E+00  0.00000000E+00
  0.00000000E+00  0.00000000E+00  0.00000000E+00
  0.00000000E+00  0.00000000E+00  0.00000000E+00
  0.00000000E+00  0.00000000E+00  0.00000000E+00
  0.00000000E+00  0.00000000E+00  0.00000000E+00
  0.00000000E+00  0.00000000E+00  0.00000000E+00
  0.00000000E+00  0.00000000E+00  0.00000000E+00
  0.00000000E+00  0.00000000E+00  0.00000000E+00
  0.00000000E+00  0.00000000E+00  0.00000000E+00
  0.00000000E+00  0.00000000E+00  0.00000000E+00
  0.00000000E+00  0.00000000E+00  0.00000000E+00
  0.00000000E+00  0.00000000E+00  0.00000000E+00
  0.00000000E+00  0.00000000E+00  0.00000000E+00
  0.00000000E+00  0.00000000E+00  0.00000000E+00
  0.00000000E+00  0.00000000E+00  0.00000000E+00
  0.00000000E+00  0.00000000E+00  0.00000000E+00
