pymatgen generated KPOINTS with grid density = 1154 / atom
0
Monkhorst
4 4 2
