Li2 B18 H28
1.0
5.831599 0.000000 0.774375
1.272480 8.751906 0.362161
0.000000 0.000000 10.104328
Li B H
2 18 28
direct
0.916318 0.728742 0.207807 Li
0.083682 0.271258 0.792193 Li
0.747922 0.864626 0.583537 B
0.252078 0.135374 0.416463 B
0.656592 0.000908 0.727523 B
0.343408 0.999092 0.272477 B
0.715179 0.884125 0.879160 B
0.284821 0.115875 0.120840 B
0.531270 0.727518 0.913687 B
0.468730 0.272482 0.086313 B
0.612361 0.615846 0.747300 B
0.387639 0.384154 0.252700 B
0.597251 0.701629 0.585688 B
0.402749 0.298371 0.414312 B
0.885160 0.853326 0.726365 B
0.114840 0.146674 0.273635 B
0.814245 0.693104 0.827625 B
0.185755 0.306896 0.172375 B
0.855477 0.679548 0.649645 B
0.144523 0.320452 0.350355 B
0.527544 0.850855 0.574294 H
0.472456 0.149145 0.425706 H
0.432481 0.690170 0.684173 H
0.567519 0.309830 0.315827 H
0.828489 0.910238 0.477007 H
0.171511 0.089762 0.522993 H
0.450774 0.002151 0.730772 H
0.549226 0.997849 0.269228 H
0.713931 0.126714 0.711258 H
0.286069 0.873286 0.288742 H
0.494343 0.884037 0.914980 H
0.505657 0.115963 0.085020 H
0.798835 0.929725 0.969578 H
0.201165 0.070275 0.030422 H
0.339801 0.739116 0.878181 H
0.660199 0.260884 0.121819 H
0.530191 0.667588 0.022993 H
0.469809 0.332412 0.977007 H
0.573201 0.486601 0.760972 H
0.426799 0.513399 0.239028 H
0.979828 0.403048 0.402169 H
0.020172 0.596952 0.597831 H
0.050326 0.389558 0.112923 H
0.949674 0.610442 0.887077 H
0.925942 0.107967 0.282588 H
0.074058 0.892033 0.717412 H
0.445039 0.361822 0.508211 H
0.554961 0.638178 0.491789 H
